p cnf 200 1110
-101 29 0
-101 -71 0
-101 22 0
-101 -28 0
-101 32 0
-101 77 0
-101 -56 0
-101 -79 0
-101 63 0
-101 -46 0
101 -29 71 -22 28 -32 -77 56 79 -63 46 0
-102 94 0
-102 -23 0
-102 74 0
-102 -34 0
-102 98 0
-102 30 0
-102 53 0
-102 88 0
-102 78 0
-102 -71 0
102 -94 23 -74 34 -98 -30 -53 -88 -78 71 0
-103 34 0
-103 -86 0
-103 -15 0
-103 1 0
-103 -67 0
-103 59 0
-103 49 0
-103 -90 0
-103 -58 0
-103 -71 0
103 -34 86 15 -1 67 -59 -49 90 58 71 0
-104 -17 0
-104 -64 0
-104 -7 0
-104 21 0
-104 -85 0
-104 -91 0
-104 -76 0
-104 69 0
-104 31 0
-104 -73 0
104 17 64 7 -21 85 91 76 -69 -31 73 0
-105 41 0
-105 -62 0
-105 26 0
-105 -71 0
-105 -100 0
-105 -37 0
-105 67 0
-105 -19 0
-105 -85 0
-105 -82 0
105 -41 62 -26 71 100 37 -67 19 85 82 0
-106 28 0
-106 -56 0
-106 -70 0
-106 -34 0
-106 16 0
-106 50 0
-106 -24 0
-106 23 0
-106 -88 0
-106 92 0
106 -28 56 70 34 -16 -50 24 -23 88 -92 0
-107 -40 0
-107 -85 0
-107 -51 0
-107 -13 0
-107 67 0
-107 41 0
-107 -71 0
-107 -6 0
-107 -37 0
-107 -20 0
107 40 85 51 13 -67 -41 71 6 37 20 0
-108 33 0
-108 -58 0
-108 -41 0
-108 47 0
-108 -77 0
-108 92 0
-108 94 0
-108 98 0
-108 -43 0
-108 91 0
108 -33 58 41 -47 77 -92 -94 -98 43 -91 0
-109 23 0
-109 4 0
-109 62 0
-109 -84 0
-109 -60 0
-109 -83 0
-109 40 0
-109 96 0
-109 2 0
-109 58 0
109 -23 -4 -62 84 60 83 -40 -96 -2 -58 0
-110 19 0
-110 67 0
-110 35 0
-110 77 0
-110 73 0
-110 -33 0
-110 71 0
-110 -75 0
-110 48 0
-110 -80 0
110 -19 -67 -35 -77 -73 33 -71 75 -48 80 0
101 102 103 104 105 106 107 108 109 110 0
-111 46 0
-111 9 0
-111 34 0
-111 -23 0
-111 99 0
-111 25 0
-111 68 0
-111 -63 0
-111 -39 0
-111 65 0
111 -46 -9 -34 23 -99 -25 -68 63 39 -65 0
-112 -43 0
-112 -69 0
-112 82 0
-112 -17 0
-112 -11 0
-112 22 0
-112 -83 0
-112 56 0
-112 -15 0
-112 -41 0
112 43 69 -82 17 11 -22 83 -56 15 41 0
-113 45 0
-113 74 0
-113 -48 0
-113 46 0
-113 95 0
-113 14 0
-113 -63 0
-113 42 0
-113 4 0
-113 -8 0
113 -45 -74 48 -46 -95 -14 63 -42 -4 8 0
-114 -61 0
-114 87 0
-114 68 0
-114 40 0
-114 -54 0
-114 98 0
-114 -100 0
-114 -21 0
-114 -86 0
-114 -83 0
114 61 -87 -68 -40 54 -98 100 21 86 83 0
-115 -18 0
-115 -55 0
-115 25 0
-115 3 0
-115 86 0
-115 -17 0
-115 -20 0
-115 -2 0
-115 -1 0
-115 -6 0
115 18 55 -25 -3 -86 17 20 2 1 6 0
-116 13 0
-116 -5 0
-116 29 0
-116 7 0
-116 82 0
-116 44 0
-116 -30 0
-116 -67 0
-116 -86 0
-116 28 0
116 -13 5 -29 -7 -82 -44 30 67 86 -28 0
-117 -3 0
-117 -33 0
-117 26 0
-117 -94 0
-117 -70 0
-117 93 0
-117 -20 0
-117 25 0
-117 95 0
-117 -76 0
117 3 33 -26 94 70 -93 20 -25 -95 76 0
-118 64 0
-118 96 0
-118 57 0
-118 -98 0
-118 65 0
-118 -69 0
-118 -59 0
-118 -39 0
-118 -80 0
-118 -51 0
118 -64 -96 -57 98 -65 69 59 39 80 51 0
-119 -40 0
-119 -22 0
-119 77 0
-119 64 0
-119 -7 0
-119 63 0
-119 43 0
-119 -55 0
-119 79 0
-119 -42 0
119 40 22 -77 -64 7 -63 -43 55 -79 42 0
-120 -76 0
-120 -71 0
-120 -67 0
-120 -92 0
-120 34 0
-120 81 0
-120 -86 0
-120 -37 0
-120 -66 0
-120 57 0
120 76 71 67 92 -34 -81 86 37 66 -57 0
111 112 113 114 115 116 117 118 119 120 0
-121 -77 0
-121 16 0
-121 -24 0
-121 -49 0
-121 -36 0
-121 89 0
-121 67 0
-121 56 0
-121 20 0
-121 96 0
121 77 -16 24 49 36 -89 -67 -56 -20 -96 0
-122 90 0
-122 93 0
-122 -67 0
-122 -12 0
-122 47 0
-122 85 0
-122 41 0
-122 61 0
-122 36 0
-122 71 0
122 -90 -93 67 12 -47 -85 -41 -61 -36 -71 0
-123 52 0
-123 35 0
-123 96 0
-123 9 0
-123 76 0
-123 -41 0
-123 -16 0
-123 47 0
-123 60 0
-123 34 0
123 -52 -35 -96 -9 -76 41 16 -47 -60 -34 0
-124 -16 0
-124 -2 0
-124 -31 0
-124 66 0
-124 63 0
-124 38 0
-124 -67 0
-124 -18 0
-124 62 0
-124 27 0
124 16 2 31 -66 -63 -38 67 18 -62 -27 0
-125 65 0
-125 -11 0
-125 56 0
-125 59 0
-125 -19 0
-125 71 0
-125 -98 0
-125 -86 0
-125 92 0
-125 35 0
125 -65 11 -56 -59 19 -71 98 86 -92 -35 0
-126 53 0
-126 -76 0
-126 70 0
-126 -61 0
-126 58 0
-126 -11 0
-126 -75 0
-126 -63 0
-126 -97 0
-126 57 0
126 -53 76 -70 61 -58 11 75 63 97 -57 0
-127 19 0
-127 -85 0
-127 15 0
-127 45 0
-127 -34 0
-127 47 0
-127 -37 0
-127 -39 0
-127 -16 0
-127 -88 0
127 -19 85 -15 -45 34 -47 37 39 16 88 0
-128 43 0
-128 -87 0
-128 -68 0
-128 -76 0
-128 -22 0
-128 -73 0
-128 -20 0
-128 67 0
-128 -5 0
-128 -99 0
128 -43 87 68 76 22 73 20 -67 5 99 0
-129 -4 0
-129 67 0
-129 -68 0
-129 -61 0
-129 -74 0
-129 65 0
-129 84 0
-129 -36 0
-129 -98 0
-129 -99 0
129 4 -67 68 61 74 -65 -84 36 98 99 0
-130 80 0
-130 -7 0
-130 82 0
-130 39 0
-130 97 0
-130 17 0
-130 55 0
-130 -30 0
-130 -22 0
-130 40 0
130 -80 7 -82 -39 -97 -17 -55 30 22 -40 0
121 122 123 124 125 126 127 128 129 130 0
-131 24 0
-131 -78 0
-131 76 0
-131 53 0
-131 -49 0
-131 -79 0
-131 -23 0
-131 -59 0
-131 95 0
-131 8 0
131 -24 78 -76 -53 49 79 23 59 -95 -8 0
-132 38 0
-132 30 0
-132 -98 0
-132 -64 0
-132 3 0
-132 -58 0
-132 44 0
-132 14 0
-132 -5 0
-132 55 0
132 -38 -30 98 64 -3 58 -44 -14 5 -55 0
-133 -34 0
-133 98 0
-133 -69 0
-133 27 0
-133 76 0
-133 -84 0
-133 3 0
-133 -81 0
-133 80 0
-133 10 0
133 34 -98 69 -27 -76 84 -3 81 -80 -10 0
-134 -70 0
-134 -6 0
-134 91 0
-134 22 0
-134 -26 0
-134 -63 0
-134 -38 0
-134 18 0
-134 13 0
-134 -76 0
134 70 6 -91 -22 26 63 38 -18 -13 76 0
-135 91 0
-135 -6 0
-135 53 0
-135 11 0
-135 -96 0
-135 -5 0
-135 -95 0
-135 54 0
-135 26 0
-135 75 0
135 -91 6 -53 -11 96 5 95 -54 -26 -75 0
-136 -11 0
-136 -16 0
-136 -75 0
-136 79 0
-136 33 0
-136 -12 0
-136 -78 0
-136 -42 0
-136 -53 0
-136 80 0
136 11 16 75 -79 -33 12 78 42 53 -80 0
-137 -83 0
-137 -19 0
-137 -55 0
-137 -39 0
-137 -64 0
-137 8 0
-137 -27 0
-137 -42 0
-137 28 0
-137 -90 0
137 83 19 55 39 64 -8 27 42 -28 90 0
-138 -34 0
-138 86 0
-138 -87 0
-138 -1 0
-138 -3 0
-138 24 0
-138 -16 0
-138 -32 0
-138 -74 0
-138 -51 0
138 34 -86 87 1 3 -24 16 32 74 51 0
-139 5 0
-139 14 0
-139 60 0
-139 33 0
-139 38 0
-139 -87 0
-139 -92 0
-139 62 0
-139 -37 0
-139 23 0
139 -5 -14 -60 -33 -38 87 92 -62 37 -23 0
-140 31 0
-140 -83 0
-140 -75 0
-140 -49 0
-140 12 0
-140 55 0
-140 29 0
-140 85 0
-140 44 0
-140 45 0
140 -31 83 75 49 -12 -55 -29 -85 -44 -45 0
131 132 133 134 135 136 137 138 139 140 0
-141 -27 0
-141 -20 0
-141 13 0
-141 44 0
-141 34 0
-141 -23 0
-141 -6 0
-141 56 0
-141 -18 0
-141 29 0
141 27 20 -13 -44 -34 23 6 -56 18 -29 0
-142 -78 0
-142 -19 0
-142 32 0
-142 -58 0
-142 -59 0
-142 84 0
-142 41 0
-142 -4 0
-142 83 0
-142 -64 0
142 78 19 -32 58 59 -84 -41 4 -83 64 0
-143 -10 0
-143 7 0
-143 -59 0
-143 -66 0
-143 52 0
-143 80 0
-143 43 0
-143 -34 0
-143 8 0
-143 -53 0
143 10 -7 59 66 -52 -80 -43 34 -8 53 0
-144 -19 0
-144 77 0
-144 96 0
-144 -22 0
-144 43 0
-144 -78 0
-144 -36 0
-144 -99 0
-144 -39 0
-144 32 0
144 19 -77 -96 22 -43 78 36 99 39 -32 0
-145 34 0
-145 -75 0
-145 -31 0
-145 1 0
-145 53 0
-145 6 0
-145 64 0
-145 -5 0
-145 29 0
-145 19 0
145 -34 75 31 -1 -53 -6 -64 5 -29 -19 0
-146 48 0
-146 88 0
-146 49 0
-146 38 0
-146 54 0
-146 22 0
-146 74 0
-146 -51 0
-146 -67 0
-146 94 0
146 -48 -88 -49 -38 -54 -22 -74 51 67 -94 0
-147 -43 0
-147 60 0
-147 45 0
-147 10 0
-147 87 0
-147 -66 0
-147 -32 0
-147 -61 0
-147 -68 0
-147 -9 0
147 43 -60 -45 -10 -87 66 32 61 68 9 0
-148 -15 0
-148 -89 0
-148 75 0
-148 -27 0
-148 63 0
-148 -76 0
-148 60 0
-148 -92 0
-148 -68 0
-148 54 0
148 15 89 -75 27 -63 76 -60 92 68 -54 0
-149 38 0
-149 72 0
-149 -17 0
-149 84 0
-149 -57 0
-149 -87 0
-149 63 0
-149 59 0
-149 -18 0
-149 -32 0
149 -38 -72 17 -84 57 87 -63 -59 18 32 0
-150 -42 0
-150 87 0
-150 -10 0
-150 -13 0
-150 -23 0
-150 68 0
-150 3 0
-150 -37 0
-150 -32 0
-150 43 0
150 42 -87 10 13 23 -68 -3 37 32 -43 0
141 142 143 144 145 146 147 148 149 150 0
-151 -56 0
-151 16 0
-151 -98 0
-151 -70 0
-151 -100 0
-151 91 0
-151 50 0
-151 55 0
-151 69 0
-151 -26 0
151 56 -16 98 70 100 -91 -50 -55 -69 26 0
-152 3 0
-152 -89 0
-152 -15 0
-152 -5 0
-152 73 0
-152 -67 0
-152 52 0
-152 2 0
-152 -7 0
-152 -12 0
152 -3 89 15 5 -73 67 -52 -2 7 12 0
-153 46 0
-153 -67 0
-153 42 0
-153 13 0
-153 88 0
-153 -90 0
-153 -6 0
-153 -54 0
-153 17 0
-153 -52 0
153 -46 67 -42 -13 -88 90 6 54 -17 52 0
-154 -67 0
-154 -97 0
-154 49 0
-154 -30 0
-154 25 0
-154 -48 0
-154 -93 0
-154 62 0
-154 64 0
-154 66 0
154 67 97 -49 30 -25 48 93 -62 -64 -66 0
-155 -58 0
-155 38 0
-155 64 0
-155 83 0
-155 -74 0
-155 -15 0
-155 -9 0
-155 31 0
-155 -37 0
-155 -88 0
155 58 -38 -64 -83 74 15 9 -31 37 88 0
-156 75 0
-156 78 0
-156 -93 0
-156 72 0
-156 -27 0
-156 -35 0
-156 -46 0
-156 -66 0
-156 68 0
-156 63 0
156 -75 -78 93 -72 27 35 46 66 -68 -63 0
-157 -55 0
-157 48 0
-157 -78 0
-157 -6 0
-157 86 0
-157 47 0
-157 -71 0
-157 -39 0
-157 -19 0
-157 -16 0
157 55 -48 78 6 -86 -47 71 39 19 16 0
-158 -8 0
-158 -50 0
-158 77 0
-158 17 0
-158 51 0
-158 60 0
-158 82 0
-158 -4 0
-158 28 0
-158 -35 0
158 8 50 -77 -17 -51 -60 -82 4 -28 35 0
-159 -7 0
-159 -39 0
-159 -15 0
-159 -73 0
-159 10 0
-159 -78 0
-159 -79 0
-159 84 0
-159 -58 0
-159 56 0
159 7 39 15 73 -10 78 79 -84 58 -56 0
-160 21 0
-160 -37 0
-160 -33 0
-160 82 0
-160 -17 0
-160 -80 0
-160 -65 0
-160 -45 0
-160 3 0
-160 -41 0
160 -21 37 33 -82 17 80 65 45 -3 41 0
151 152 153 154 155 156 157 158 159 160 0
-161 -95 0
-161 55 0
-161 29 0
-161 -89 0
-161 -98 0
-161 39 0
-161 84 0
-161 73 0
-161 -33 0
-161 -46 0
161 95 -55 -29 89 98 -39 -84 -73 33 46 0
-162 78 0
-162 96 0
-162 31 0
-162 40 0
-162 47 0
-162 -2 0
-162 54 0
-162 -23 0
-162 82 0
-162 -73 0
162 -78 -96 -31 -40 -47 2 -54 23 -82 73 0
-163 -46 0
-163 85 0
-163 -56 0
-163 -97 0
-163 -79 0
-163 -20 0
-163 61 0
-163 17 0
-163 -38 0
-163 -8 0
163 46 -85 56 97 79 20 -61 -17 38 8 0
-164 -76 0
-164 -4 0
-164 80 0
-164 -72 0
-164 -11 0
-164 89 0
-164 -94 0
-164 20 0
-164 32 0
-164 54 0
164 76 4 -80 72 11 -89 94 -20 -32 -54 0
-165 -57 0
-165 24 0
-165 -20 0
-165 -49 0
-165 99 0
-165 95 0
-165 -91 0
-165 -69 0
-165 -55 0
-165 -76 0
165 57 -24 20 49 -99 -95 91 69 55 76 0
-166 -26 0
-166 -2 0
-166 57 0
-166 56 0
-166 47 0
-166 -100 0
-166 -67 0
-166 -85 0
-166 72 0
-166 55 0
166 26 2 -57 -56 -47 100 67 85 -72 -55 0
-167 -49 0
-167 36 0
-167 28 0
-167 13 0
-167 73 0
-167 -27 0
-167 52 0
-167 -94 0
-167 95 0
-167 44 0
167 49 -36 -28 -13 -73 27 -52 94 -95 -44 0
-168 23 0
-168 -19 0
-168 50 0
-168 32 0
-168 17 0
-168 39 0
-168 88 0
-168 -60 0
-168 -95 0
-168 61 0
168 -23 19 -50 -32 -17 -39 -88 60 95 -61 0
-169 94 0
-169 -6 0
-169 -73 0
-169 -99 0
-169 97 0
-169 -100 0
-169 86 0
-169 -15 0
-169 -5 0
-169 56 0
169 -94 6 73 99 -97 100 -86 15 5 -56 0
-170 63 0
-170 97 0
-170 85 0
-170 -42 0
-170 96 0
-170 87 0
-170 24 0
-170 37 0
-170 -13 0
-170 71 0
170 -63 -97 -85 42 -96 -87 -24 -37 13 -71 0
161 162 163 164 165 166 167 168 169 170 0
-171 -15 0
-171 48 0
-171 53 0
-171 60 0
-171 40 0
-171 -85 0
-171 -35 0
-171 43 0
-171 68 0
-171 31 0
171 15 -48 -53 -60 -40 85 35 -43 -68 -31 0
-172 -73 0
-172 -58 0
-172 -86 0
-172 88 0
-172 -50 0
-172 -44 0
-172 -26 0
-172 -56 0
-172 -79 0
-172 -7 0
172 73 58 86 -88 50 44 26 56 79 7 0
-173 71 0
-173 15 0
-173 -86 0
-173 54 0
-173 -82 0
-173 -81 0
-173 -53 0
-173 -20 0
-173 70 0
-173 -5 0
173 -71 -15 86 -54 82 81 53 20 -70 5 0
-174 91 0
-174 -23 0
-174 82 0
-174 -19 0
-174 34 0
-174 1 0
-174 88 0
-174 89 0
-174 35 0
-174 30 0
174 -91 23 -82 19 -34 -1 -88 -89 -35 -30 0
-175 -37 0
-175 -53 0
-175 -33 0
-175 -43 0
-175 93 0
-175 12 0
-175 -38 0
-175 55 0
-175 23 0
-175 32 0
175 37 53 33 43 -93 -12 38 -55 -23 -32 0
-176 71 0
-176 -34 0
-176 95 0
-176 -90 0
-176 44 0
-176 77 0
-176 78 0
-176 72 0
-176 73 0
-176 -67 0
176 -71 34 -95 90 -44 -77 -78 -72 -73 67 0
-177 33 0
-177 73 0
-177 -81 0
-177 -74 0
-177 -98 0
-177 -31 0
-177 -71 0
-177 -10 0
-177 5 0
-177 87 0
177 -33 -73 81 74 98 31 71 10 -5 -87 0
-178 3 0
-178 64 0
-178 -75 0
-178 65 0
-178 -77 0
-178 -95 0
-178 89 0
-178 -23 0
-178 69 0
-178 -7 0
178 -3 -64 75 -65 77 95 -89 23 -69 7 0
-179 82 0
-179 49 0
-179 -35 0
-179 17 0
-179 -84 0
-179 100 0
-179 33 0
-179 31 0
-179 95 0
-179 90 0
179 -82 -49 35 -17 84 -100 -33 -31 -95 -90 0
-180 12 0
-180 29 0
-180 -38 0
-180 2 0
-180 70 0
-180 -74 0
-180 -19 0
-180 50 0
-180 94 0
-180 91 0
180 -12 -29 38 -2 -70 74 19 -50 -94 -91 0
171 172 173 174 175 176 177 178 179 180 0
-181 55 0
-181 -100 0
-181 32 0
-181 -46 0
-181 -14 0
-181 -98 0
-181 43 0
-181 79 0
-181 92 0
-181 28 0
181 -55 100 -32 46 14 98 -43 -79 -92 -28 0
-182 -50 0
-182 -86 0
-182 -97 0
-182 65 0
-182 -56 0
-182 64 0
-182 19 0
-182 68 0
-182 4 0
-182 -92 0
182 50 86 97 -65 56 -64 -19 -68 -4 92 0
-183 -5 0
-183 6 0
-183 -47 0
-183 -44 0
-183 32 0
-183 90 0
-183 39 0
-183 64 0
-183 -92 0
-183 35 0
183 5 -6 47 44 -32 -90 -39 -64 92 -35 0
-184 63 0
-184 48 0
-184 59 0
-184 25 0
-184 64 0
-184 37 0
-184 -22 0
-184 32 0
-184 86 0
-184 96 0
184 -63 -48 -59 -25 -64 -37 22 -32 -86 -96 0
-185 -58 0
-185 7 0
-185 -40 0
-185 -69 0
-185 36 0
-185 98 0
-185 -82 0
-185 25 0
-185 32 0
-185 -28 0
185 58 -7 40 69 -36 -98 82 -25 -32 28 0
-186 54 0
-186 67 0
-186 93 0
-186 73 0
-186 -18 0
-186 3 0
-186 78 0
-186 8 0
-186 -63 0
-186 -86 0
186 -54 -67 -93 -73 18 -3 -78 -8 63 86 0
-187 46 0
-187 -34 0
-187 97 0
-187 -30 0
-187 41 0
-187 -21 0
-187 92 0
-187 48 0
-187 -44 0
-187 65 0
187 -46 34 -97 30 -41 21 -92 -48 44 -65 0
-188 -72 0
-188 -56 0
-188 20 0
-188 -81 0
-188 49 0
-188 27 0
-188 16 0
-188 -30 0
-188 83 0
-188 93 0
188 72 56 -20 81 -49 -27 -16 30 -83 -93 0
-189 86 0
-189 -23 0
-189 63 0
-189 -7 0
-189 -1 0
-189 -39 0
-189 83 0
-189 -37 0
-189 13 0
-189 -33 0
189 -86 23 -63 7 1 39 -83 37 -13 33 0
-190 90 0
-190 -68 0
-190 -29 0
-190 -43 0
-190 69 0
-190 -17 0
-190 79 0
-190 -70 0
-190 -63 0
-190 -15 0
190 -90 68 29 43 -69 17 -79 70 63 15 0
181 182 183 184 185 186 187 188 189 190 0
-191 -87 0
-191 65 0
-191 23 0
-191 -78 0
-191 7 0
-191 31 0
-191 -100 0
-191 47 0
-191 56 0
-191 37 0
191 87 -65 -23 78 -7 -31 100 -47 -56 -37 0
-192 -28 0
-192 44 0
-192 -6 0
-192 60 0
-192 92 0
-192 -45 0
-192 80 0
-192 82 0
-192 -7 0
-192 79 0
192 28 -44 6 -60 -92 45 -80 -82 7 -79 0
-193 -1 0
-193 87 0
-193 -38 0
-193 37 0
-193 -91 0
-193 3 0
-193 13 0
-193 50 0
-193 -7 0
-193 -33 0
193 1 -87 38 -37 91 -3 -13 -50 7 33 0
-194 -3 0
-194 4 0
-194 -94 0
-194 -38 0
-194 -73 0
-194 -22 0
-194 -37 0
-194 43 0
-194 -23 0
-194 -79 0
194 3 -4 94 38 73 22 37 -43 23 79 0
-195 -97 0
-195 -90 0
-195 -21 0
-195 -85 0
-195 -36 0
-195 -61 0
-195 83 0
-195 -14 0
-195 -46 0
-195 48 0
195 97 90 21 85 36 61 -83 14 46 -48 0
-196 -93 0
-196 -53 0
-196 -71 0
-196 -99 0
-196 19 0
-196 29 0
-196 55 0
-196 69 0
-196 -61 0
-196 84 0
196 93 53 71 99 -19 -29 -55 -69 61 -84 0
-197 -89 0
-197 -21 0
-197 56 0
-197 9 0
-197 50 0
-197 -45 0
-197 -99 0
-197 83 0
-197 -88 0
-197 34 0
197 89 21 -56 -9 -50 45 99 -83 88 -34 0
-198 -22 0
-198 -11 0
-198 60 0
-198 57 0
-198 85 0
-198 41 0
-198 82 0
-198 28 0
-198 42 0
-198 39 0
198 22 11 -60 -57 -85 -41 -82 -28 -42 -39 0
-199 8 0
-199 -32 0
-199 -58 0
-199 -7 0
-199 -43 0
-199 84 0
-199 15 0
-199 -93 0
-199 48 0
-199 81 0
199 -8 32 58 7 43 -84 -15 93 -48 -81 0
-200 -17 0
-200 -35 0
-200 95 0
-200 4 0
-200 12 0
-200 39 0
-200 63 0
-200 66 0
-200 -91 0
-200 -83 0
200 17 35 -95 -4 -12 -39 -63 -66 91 83 0
191 192 193 194 195 196 197 198 199 200 0
